id: 1195
name: neos-957389
group: miplib2010
method: 1

Gurobi 7.0.2 (linux64, Matlab) logging started Fri Apr 20 03:27:53 2018


Gurobi 7.0.2 (linux64) logging started Fri Apr 20 03:27:53 2018

Optimize a model with 5115 rows, 6036 columns and 355372 nonzeros
Coefficient statistics:
  Matrix range     [1e+00, 3e+01]
  Objective range  [5e-01, 5e-01]
  Bounds range     [1e+00, 1e+00]
  RHS range        [1e+00, 1e+00]
Presolve removed 1 rows and 2 columns
Presolve time: 0.05s
Presolved: 5114 rows, 6034 columns, 355369 nonzeros

Iteration    Objective       Primal Inf.    Dual Inf.      Time
       0    5.0000000e-01   7.693750e+01   0.000000e+00      0s
     779    1.5000000e+00   0.000000e+00   0.000000e+00      0s

Solved in 779 iterations and 0.12 seconds
Optimal objective  1.500000000e+00
status: OPTIMAL
